20
587 233 220
119 41 38
90 44 35
67 55 27
71 47 36
90 55 51
87 68 40
87 53 36
113 47 34
97 56 35
90 60 25
88 75 70
111 64 51
105 77 31
91 33 29
53 34 31
73 40 34
84 56 44
113 81 29
89 53 51
62 30 26
thpack7_67